\ This file has been generated by DOcplex
\ ENCODING=ISO-8859-1
\Problem name: Qrandom15242_6.lp

Minimize
 obj: - 5435684 x0 - 2717842 x1 - 1358921 x2 - 5435692 x3 - 2717846 x4
      - 1358923 x5 + [ 3144832 x0^2 + 3144832 x0*x1 + 1572416 x0*x2
      + 6208192 x0*x3 + 3104096 x0*x4 + 1552048 x0*x5 + 786208 x1^2
      + 786208 x1*x2 + 3104096 x1*x3 + 1552048 x1*x4 + 776024 x1*x5
      + 196552 x2^2 + 1552048 x2*x3 + 776024 x2*x4 + 388012 x2*x5 + 3123680 x3^2
      + 3123680 x3*x4 + 1561840 x3*x5 + 780920 x4^2 + 780920 x4*x5 + 195230 x5^2
      ]/2 + 4755058
Subject To

Bounds
 0 <= x0 <= 1
 0 <= x1 <= 1
 0 <= x2 <= 1
 0 <= x3 <= 1
 0 <= x4 <= 1
 0 <= x5 <= 1

Binaries
 x0 x1 x2 x3 x4 x5
End
